# Solution for model r3_t18_m4_8
# Finished Task: 17 / 18
# Makespan: 874.0, Total Distance: 1192.0, Total Time: 0.4328
# R O S F
0 0 7 0.0 0.0
1 1 9 0.0 0.0
2 2 11 0.0 0.0
3 2 17 407.0 432.0
4 1 14 698.0 723.0
5 0 16 713.0 751.0
6 2 -1 733.0 763.0
7 0 15 325.0 358.0
8 1 10 530.0 569.0
9 1 20 376.0 415.0
10 1 4 612.0 632.0
11 2 3 358.0 380.0
12 2 6 684.0 709.0
13 0 19 596.0 631.0
14 1 -1 840.0 874.0
15 0 13 559.0 596.0
16 0 -1 804.0 832.0
17 2 12 527.0 553.0
18 -1 -1 -1.0 -1.0
19 0 5 652.0 689.0
20 1 8 439.0 463.0
